c Reduced graph for GEOM50b_2 generated by Cyril Grelier
p edge 47 240
e 1 2
e 1 3
e 1 4
e 1 5
e 1 7
e 1 8
e 1 9
e 1 10
e 1 13
e 1 14
e 1 15
e 1 16
e 1 17
e 1 18
e 1 21
e 1 26
e 1 37
e 2 3
e 2 4
e 2 5
e 2 6
e 2 7
e 2 8
e 2 10
e 2 11
e 2 12
e 2 13
e 2 15
e 2 16
e 2 17
e 2 19
e 3 5
e 3 7
e 3 8
e 3 10
e 3 12
e 3 13
e 3 15
e 3 16
e 3 19
e 3 20
e 3 28
e 3 29
e 4 7
e 4 9
e 4 10
e 4 13
e 4 14
e 4 17
e 4 18
e 4 21
e 4 26
e 4 31
e 4 34
e 4 37
e 5 7
e 5 8
e 5 10
e 5 12
e 5 13
e 5 15
e 5 16
e 5 19
e 5 20
e 5 28
e 5 29
e 6 7
e 6 11
e 6 13
e 6 20
e 6 22
e 6 23
e 6 27
e 6 30
e 6 32
e 6 33
e 6 35
e 6 36
e 6 38
e 7 10
e 7 11
e 7 13
e 7 14
e 7 18
e 7 23
e 7 27
e 8 12
e 8 13
e 8 15
e 8 16
e 8 19
e 8 24
e 8 25
e 8 28
e 8 40
e 9 10
e 9 14
e 9 17
e 9 18
e 9 21
e 9 26
e 9 31
e 9 34
e 9 37
e 9 43
e 9 45
e 10 11
e 10 13
e 10 14
e 10 17
e 10 18
e 10 21
e 11 13
e 11 18
e 11 22
e 11 23
e 11 27
e 11 30
e 11 35
e 11 36
e 11 44
e 12 15
e 12 16
e 12 24
e 12 25
e 12 28
e 12 39
e 12 40
e 12 46
e 12 47
e 13 19
e 13 20
e 13 27
e 14 17
e 14 18
e 14 21
e 14 31
e 14 34
e 14 43
e 14 45
e 15 16
e 15 24
e 15 25
e 15 26
e 15 39
e 15 40
e 16 24
e 16 25
e 16 26
e 16 39
e 16 40
e 17 21
e 17 26
e 17 31
e 17 34
e 17 37
e 18 21
e 18 23
e 18 31
e 18 44
e 19 20
e 19 28
e 19 29
e 19 32
e 19 33
e 19 41
e 20 29
e 20 32
e 20 33
e 20 38
e 20 41
e 20 42
e 21 31
e 21 43
e 21 44
e 21 45
e 22 23
e 22 27
e 22 30
e 22 32
e 22 33
e 22 35
e 22 36
e 22 38
e 23 27
e 23 30
e 23 35
e 23 36
e 23 44
e 24 25
e 24 28
e 24 39
e 24 40
e 24 46
e 24 47
e 25 26
e 25 37
e 25 39
e 25 46
e 25 47
e 26 34
e 26 37
e 26 39
e 27 30
e 27 35
e 27 36
e 27 44
e 28 29
e 28 40
e 28 41
e 29 32
e 29 33
e 29 41
e 29 42
e 30 33
e 30 35
e 30 36
e 30 38
e 31 34
e 31 43
e 31 45
e 32 33
e 32 38
e 32 41
e 32 42
e 33 38
e 33 42
e 34 37
e 34 43
e 34 45
e 35 36
e 35 38
e 36 44
e 37 39
e 38 42
e 39 46
e 40 47
e 41 42
e 43 45
e 46 47
